data;
param nombreJob := 7;
param nombreRessource := 3;
param duree := 1 5 2 4 3 2 4 6 5 3 6 9 7 9;
param capaciteRessource := 1 8 2 15 3 10;
param besoinRessource : 1 2 3 :=
                    1   4 5 9
                    2   3 5 6
                    3   1 7 2
                    4   1 7 3
                    5   3 1 8
                    6   3 1 8
                    7   1 6 6;
end;

